NAME 
ROWS
 N  OBJ
 L  R0      
 L  R1      
 L  R2      
 E  R3      
 E  R4      
 E  R5      
 E  R6      
 E  R7      
 E  R8      
 E  R9      
 E  R10     
 E  R11     
 E  R12     
COLUMNS
    MARKER    'MARKER'                 'INTORG'
    I0(8)     OBJ       128
    I0(8)     R0        -157
    I0(8)     R1        -196
    I0(8)     R2        14
    I0(8)     R3        13
    I0(8)     R5        4
    I0(8)     R6        6
    I0(8)     R7        6
    I0(8)     R12       1
    I1(5)     OBJ       6
    I1(5)     R0        -199
    I1(5)     R1        72
    I1(5)     R2        47
    I1(5)     R6        13
    I1(5)     R12       1
    I2(7)     OBJ       -146
    I2(7)     R0        68
    I2(7)     R1        -8
    I2(7)     R2        137
    I2(7)     R3        4
    I2(7)     R6        15
    I2(7)     R7        8
    I2(7)     R12       1
    I3(8)     OBJ       -77
    I3(8)     R0        17
    I3(8)     R1        64
    I3(8)     R2        158
    I3(8)     R3        19
    I3(8)     R5        5
    I3(8)     R6        -1
    I3(8)     R7        14
    I3(8)     R12       1
    I4(6)     OBJ       84
    I4(6)     R0        101
    I4(6)     R1        -137
    I4(6)     R2        173
    I4(6)     R3        6
    I4(6)     R7        13
    I4(6)     R12       1
    MARKER    'MARKER'                 'INTEND'
    C5(8)     OBJ       8
    C5(8)     R0        -10
    C5(8)     R1        -7
    C5(8)     R2        5
    C5(8)     R3        13
    C5(8)     R4        10
    C5(8)     R7        16
    C5(8)     R8        7
    C5(8)     R10       9
    C6(7)     OBJ       4
    C6(7)     R1        -8
    C6(7)     R2        9
    C6(7)     R3        7
    C6(7)     R5        -1
    C6(7)     R6        -1
    C6(7)     R9        9
    C6(7)     R10       3
    C7(11)    OBJ       -6
    C7(11)    R0        -9
    C7(11)    R1        6
    C7(11)    R2        -6
    C7(11)    R3        19
    C7(11)    R4        8
    C7(11)    R5        7
    C7(11)    R6        14
    C7(11)    R7        10
    C7(11)    R8        9
    C7(11)    R9        11
    C7(11)    R10       7
    C8(9)     OBJ       5
    C8(9)     R0        -3
    C8(9)     R1        -10
    C8(9)     R2        3
    C8(9)     R3        5
    C8(9)     R4        4
    C8(9)     R6        13
    C8(9)     R8        11
    C8(9)     R9        4
    C8(9)     R10       19
    C9(10)    OBJ       -8
    C9(10)    R0        -1
    C9(10)    R1        1
    C9(10)    R2        -6
    C9(10)    R3        12
    C9(10)    R5        6
    C9(10)    R6        6
    C9(10)    R7        4
    C9(10)    R8        7
    C9(10)    R9        7
    C9(10)    R11       14
    C10(1)    R3        1
    C11(1)    R4        1
    C12(1)    R5        1
    C13(1)    R6        1
    C14(1)    R7        1
    C15(1)    R8        1
    C16(1)    R9        1
    C17(1)    R10       1
    C18(1)    R11       1
    C19(1)    R12       1
RHS
    RHS1      R0        5.1687969924812052e+01
    RHS1      R1        4.6127819548872040e+00
    RHS1      R2        9.8315789473684220e+01
    RHS1      R3        90
    RHS1      R4        52
    RHS1      R5        86
    RHS1      R6        90
    RHS1      R7        98
    RHS1      R8        93
    RHS1      R9        77
    RHS1      R10       96
    RHS1      R11       73
    RHS1      R12       1
BOUNDS
 UP BND1      I0(8)     2
 UP BND1      I1(5)     2
 UP BND1      I2(7)     2
 UP BND1      I3(8)     2
 UP BND1      I4(6)     2
ENDATA
